Normalized Data/p02_23_normalized_split0.vrp
NAME:p02_23_NORMALIZED_split
BEST_KNOWN: 0
COMMENT: 0
DIMENSION: 299
CAPACITY: 100
EDGE_WEIGHT_FORMAT: FUNCTION
EDGE_WEIGHT_TYPE: EXACT_2D
NODE_COORD_SECTION
1 0.00000 0.00000
2 8 -9
3 8 -9
4 8 -9
5 -28 -22
6 -28 -22
7 -28 -22
8 -28 -22
9 -11 45
10 -11 45
11 -11 45
12 -11 45
13 -4 -38
14 -4 -38
15 -4 -38
16 -4 -38
17 -4 -38
18 -28 37
19 -28 37
20 -28 37
21 -28 37
22 -29 -42
23 -29 -42
24 -29 -42
25 -29 -42
26 -29 -42
27 43 -6
28 43 -6
29 43 -6
30 29 24
31 29 24
32 29 24
33 -40 26
34 -40 26
35 0 1
36 0 1
37 0 1
38 0 1
39 0 1
40 0 1
41 29 20
42 29 20
43 29 20
44 29 20
45 29 20
46 40 -46
47 40 -46
48 40 -46
49 40 -46
50 40 -46
51 40 -46
52 40 -46
53 -44 -32
54 -44 -32
55 -44 -32
56 -44 -32
57 -44 -32
58 -44 -32
59 -37 -32
60 -37 -32
61 -7 -2
62 -7 -2
63 -3 -32
64 -3 -32
65 -3 -32
66 -3 -32
67 49 31
68 49 31
69 49 31
70 49 31
71 -4 -15
72 -4 -15
73 -4 -15
74 -4 -15
75 -4 -15
76 8 49
77 8 49
78 -3 -33
79 -3 -33
80 -3 -33
81 -3 -33
82 -3 -33
83 -10 -42
84 -10 -42
85 -10 -42
86 -10 -42
87 29 50
88 29 50
89 29 50
90 29 50
91 29 50
92 29 50
93 29 50
94 21 21
95 21 21
96 21 21
97 -26 -35
98 -26 -35
99 -26 -35
100 -26 -35
101 -9 40
102 -9 40
103 -9 40
104 -9 40
105 -9 40
106 -9 40
107 -16 18
108 -16 18
109 -16 18
110 -16 18
111 -16 18
112 -16 18
113 30 -14
114 30 -14
115 30 -14
116 22 14
117 22 14
118 22 14
119 22 14
120 27 -43
121 27 -43
122 27 -43
123 27 -43
124 27 -43
125 27 -43
126 27 -43
127 -28 12
128 -28 12
129 -28 12
130 -28 12
131 37 33
132 37 33
133 37 33
134 -15 15
135 -15 15
136 -15 15
137 13 -49
138 13 -49
139 36 42
140 36 42
141 36 42
142 36 42
143 -24 -16
144 -24 -16
145 -24 -16
146 -34 46
147 -21 -28
148 -21 -28
149 -21 -28
150 -21 -28
151 -21 -28
152 -21 -28
153 41 -6
154 41 -6
155 41 -6
156 41 -6
157 -31 20
158 -31 20
159 -31 20
160 -28 -38
161 -28 -38
162 7 11
163 7 11
164 7 11
165 7 11
166 7 11
167 7 11
168 -15 -32
169 -15 -32
170 -43 -40
171 -43 -40
172 -43 -40
173 -43 -40
174 -43 -40
175 -32 3
176 20 -6
177 20 -6
178 20 -6
179 -48 25
180 -48 25
181 -45 -47
182 -45 -47
183 -45 -47
184 -45 -47
185 -36 7
186 -36 7
187 -36 7
188 -49 2
189 -49 2
190 -41 28
191 -41 28
192 -38 14
193 -38 14
194 -38 14
195 -38 14
196 -38 14
197 -38 14
198 3 -17
199 3 -17
200 -29 -40
201 -29 -40
202 -29 -40
203 -29 -40
204 8 -27
205 8 -27
206 8 -27
207 8 -27
208 8 -27
209 -9 -10
210 -9 -10
211 -9 -10
212 -9 -10
213 -9 -10
214 -9 -10
215 10 -8
216 10 -8
217 10 -8
218 10 -8
219 10 -8
220 -46 4
221 -46 4
222 -46 4
223 -46 4
224 -46 4
225 49 -47
226 49 -47
227 49 -47
228 49 -47
229 49 -47
230 49 -47
231 46 5
232 -15 -47
233 -15 -47
234 -15 -47
235 -15 -47
236 30 -10
237 30 -10
238 30 -10
239 30 -10
240 -27 -9
241 -27 -9
242 -27 -9
243 -27 -9
244 -27 -9
245 -27 -9
246 41 14
247 41 14
248 41 14
249 41 14
250 41 14
251 -17 43
252 -17 43
253 4 -14
254 4 -14
255 4 -14
256 4 -14
257 4 -14
258 42 34
259 42 34
260 42 34
261 42 34
262 14 -23
263 47 -43
264 47 -43
265 37 38
266 37 38
267 37 38
268 37 38
269 37 38
270 34 37
271 34 37
272 34 37
273 34 37
274 34 37
275 31 -23
276 31 -23
277 -20 41
278 -20 41
279 -20 41
280 -20 41
281 -20 41
282 -20 41
283 -20 41
284 44 19
285 44 19
286 44 19
287 44 19
288 44 19
289 44 19
290 9 -23
291 9 -23
292 9 -23
293 9 -23
294 9 -23
295 0 43
296 0 43
297 0 43
298 0 43
299 0 43
DEMAND_SECTION
1 0
2 20
3 10
4 1
5 20
6 20
7 1
8 1
9 10
10 5
11 1
12 1
13 20
14 5
15 1
16 1
17 1
18 20
19 10
20 1
21 1
22 20
23 1
24 1
25 1
26 1
27 20
28 10
29 5
30 20
31 5
32 1
33 20
34 10
35 20
36 10
37 5
38 1
39 1
40 1
41 20
42 10
43 5
44 1
45 1
46 20
47 10
48 5
49 1
50 1
51 1
52 1
53 20
54 20
55 1
56 1
57 1
58 1
59 20
60 20
61 20
62 20
63 20
64 10
65 1
66 1
67 20
68 20
69 1
70 1
71 20
72 20
73 5
74 1
75 1
76 20
77 10
78 20
79 1
80 1
81 1
82 1
83 20
84 10
85 1
86 1
87 20
88 10
89 5
90 1
91 1
92 1
93 1
94 20
95 20
96 5
97 20
98 1
99 1
100 1
101 20
102 10
103 1
104 1
105 1
106 1
107 20
108 10
109 1
110 1
111 1
112 1
113 10
114 1
115 1
116 20
117 10
118 1
119 1
120 20
121 10
122 5
123 1
124 1
125 1
126 1
127 20
128 10
129 5
130 1
131 20
132 10
133 1
134 10
135 5
136 1
137 20
138 5
139 20
140 1
141 1
142 1
143 20
144 10
145 1
146 20
147 20
148 20
149 5
150 1
151 1
152 1
153 20
154 20
155 1
156 1
157 20
158 20
159 1
160 20
161 10
162 20
163 20
164 1
165 1
166 1
167 1
168 20
169 5
170 20
171 20
172 1
173 1
174 1
175 20
176 10
177 1
178 1
179 10
180 5
181 10
182 5
183 1
184 1
185 20
186 20
187 1
188 20
189 1
190 20
191 5
192 20
193 10
194 5
195 1
196 1
197 1
198 10
199 5
200 20
201 10
202 1
203 1
204 10
205 5
206 1
207 1
208 1
209 20
210 10
211 1
212 1
213 1
214 1
215 10
216 5
217 1
218 1
219 1
220 10
221 1
222 1
223 1
224 1
225 20
226 20
227 5
228 1
229 1
230 1
231 20
232 20
233 10
234 5
235 1
236 10
237 5
238 1
239 1
240 10
241 5
242 1
243 1
244 1
245 1
246 20
247 20
248 1
249 1
250 1
251 20
252 20
253 20
254 10
255 5
256 1
257 1
258 20
259 10
260 5
261 1
262 20
263 20
264 20
265 10
266 1
267 1
268 1
269 1
270 20
271 10
272 1
273 1
274 1
275 20
276 20
277 20
278 10
279 5
280 1
281 1
282 1
283 1
284 20
285 5
286 1
287 1
288 1
289 1
290 20
291 20
292 5
293 1
294 1
295 20
296 1
297 1
298 1
299 1
DEPOT_SECTION
1
-1
EOF