Normalized Data/p02_23_normalized_split0.sol
298 -1 3 2 214 217 215 218 216 -4 5 146 147 148 151 149 150 209 213 -10 8 11 9 250 251 280 282 278 276 281 279 277 -31 29 30 69 68 67 66 286 283 285 287 284 288 -34 36 -37 35 39 38 -44 41 40 43 42 249 247 248 246 245 230 -51 45 46 47 48 50 49 125 123 124 120 122 121 119 261 -58 59 55 57 52 56 53 54 6 7 143 144 -60 61 241 242 244 240 243 239 142 208 -62 65 64 63 84 83 85 82 233 234 231 232 -73 74 72 70 71 197 198 255 256 252 254 253 -76 75 296 294 298 295 297 100 101 105 104 103 102 -80 81 77 79 78 13 14 15 12 16 137 136 205 206 203 204 207 -98 99 97 96 160 159 199 168 167 -114 113 112 262 263 229 224 228 225 227 226 -115 116 118 117 93 94 95 161 166 165 -128 129 126 127 191 158 157 156 -131 130 132 259 257 260 258 273 270 272 271 269 -133 110 106 109 107 111 108 19 17 18 20 145 -135 134 32 33 190 189 179 178 192 193 195 194 196 -155 152 154 153 27 26 28 237 238 235 236 -164 162 163 92 91 90 88 89 86 87 140 138 141 139 264 266 265 267 268 -174 187 188 221 219 223 222 220 186 184 185 -177 175 176 275 274 290 289 291 292 293 -202 201 200 22 25 21 24 23 182 181 183 180 170 169 172 173 171 212 210 211 0 





OBJ=
2368.550
BEST_KNOWN=
0.000